4
Lattice="26.89 0.0 0.0 0.0 24.0 0.0 0.0 0.0 2.4595121467478056" Properties=species:S:1:pos:R:3:magmoms:R:1:forces:R:3 energy=-23.71808629369858 free_energy=-23.718550230482357 dipole="6.732186840212215e-15 -4.903191770593305e-14 -1.0587537404019122e-15" magmom=0.0 pbc="T T T"
C       13.11145332      12.00000000       0.61487804       0.00000000       0.00441983       0.00000000       0.00000005
C       13.77854668      12.00000000       1.84463411       0.00000000      -0.00441983       0.00000000      -0.00000005
H       12.00024651      12.00000000       0.61487804       0.00000000      -0.00153596       0.00000000       0.00000001
H       14.88975349      12.00000000       1.84463411       0.00000000       0.00153596       0.00000000      -0.00000001
