14
Lattice="37.54 0.0 0.0 0.0 24.0 0.0 0.0 0.0 2.4595121467478056" Properties=species:S:1:pos:R:3:magmoms:R:1:forces:R:3 energy=-109.69325370546139 free_energy=-109.72780800127609 dipole="-1.7665641499358374e-13 -2.5282017085226506e-13 -0.38595963677964945" magmom=0.0 pbc="T T T"
C       13.02729363      12.00000000       0.61487804       0.00000000      -0.00339778       0.00000000      -0.00000000
C       13.72339498      12.00000000       1.84463411       0.00000000      -0.00090828       0.00000000      -0.00000000
C       15.17514236      12.00000000       1.84463411       0.00000000      -0.00196283       0.00000000      -0.00000000
C       15.89175733      12.00000000       0.61487804       0.00000000      -0.00379419       0.00000000      -0.00000000
C       17.33123555      12.00000000       0.61487804       0.00000000       0.01125245       0.00000000      -0.00000000
C       18.05047436      12.00000000       1.84463411       0.00000000       0.00395850       0.00000000      -0.00000000
C       19.48952564      12.00000000       1.84463411       0.00000000      -0.00395850       0.00000000      -0.00000000
C       20.20876445      12.00000000       0.61487804       0.00000000      -0.01125245       0.00000000      -0.00000000
C       21.64824267      12.00000000       0.61487804       0.00000000       0.00379419       0.00000000      -0.00000000
C       22.36485764      12.00000000       1.84463411       0.00000000       0.00196283       0.00000000      -0.00000000
C       23.81660502      12.00000000       1.84463411       0.00000000       0.00090828       0.00000000      -0.00000000
C       24.51270637      12.00000000       0.61487804       0.00000000       0.00339778       0.00000000      -0.00000000
H       11.92006008      12.00000000       0.61487804       0.00000000      -0.00524384       0.00000000      -0.00000000
H       25.61993992      12.00000000       0.61487804       0.00000000       0.00524384       0.00000000      -0.00000000
