10
Lattice="33.28 0.0 0.0 0.0 24.0 0.0 0.0 0.0 2.4595121467478056" Properties=species:S:1:pos:R:3:magmoms:R:1:forces:R:3 energy=-79.427744989951 free_energy=-79.45637467741112 dipole="1.0545924276604842e-13 -1.7133672057585659e-13 -0.37961776111435297" magmom=0.0 pbc="T T T"
C       13.08990744      12.00000000       0.61487804       0.00000000      -0.00043959       0.00000000       0.00000000
C       13.77072121      12.00000000       1.84463411       0.00000000       0.01041376       0.00000000      -0.00000000
C       15.21624292      12.00000000       1.84463411       0.00000000      -0.00555404       0.00000000       0.00000000
C       15.92205658      12.00000000       0.61487804       0.00000000       0.00797321       0.00000000       0.00000000
C       17.35794342      12.00000000       0.61487804       0.00000000      -0.00797321       0.00000000       0.00000000
C       18.06375708      12.00000000       1.84463411       0.00000000       0.00555404       0.00000000       0.00000000
C       19.50927879      12.00000000       1.84463411       0.00000000      -0.01041376       0.00000000      -0.00000000
C       20.19009256      12.00000000       0.61487804       0.00000000       0.00043959       0.00000000       0.00000000
H       11.99438058      12.00000000       0.61487804       0.00000000      -0.00240487       0.00000000      -0.00000000
H       21.28561942      12.00000000       0.61487804       0.00000000       0.00240487       0.00000000      -0.00000000
