18
Lattice="41.8 0.0 0.0 0.0 24.0 0.0 0.0 0.0 2.4595121467478056" Properties=species:S:1:pos:R:3:magmoms:R:1:forces:R:3 energy=-152.51811975802156 free_energy=-152.5567232769951 dipole="-6.468638146033141e-13 -3.309909418802246e-13 -0.3773082362624505" magmom=0.0 pbc="T T T"
C       13.07340237      12.00000000       0.61487804       0.00000000       0.00355612       0.00000000       0.00000000
C       13.75496501      12.00000000       1.84463411       0.00000000       0.00320798       0.00000000      -0.00000000
C       15.19788243      12.00000000       1.84463411       0.00000000       0.00250889       0.00000000      -0.00000000
C       15.90568469      12.00000000       0.61487804       0.00000000       0.00724482       0.00000000       0.00000000
C       17.33609579      12.00000000       0.61487804       0.00000000      -0.00255618       0.00000000      -0.00000000
C       18.04706893      12.00000000       1.84463411       0.00000000       0.00266055       0.00000000      -0.00000000
C       19.47463436      12.00000000       1.84463411       0.00000000       0.00353843       0.00000000       0.00000000
C       20.18646283      12.00000000       0.61487804       0.00000000       0.00134997       0.00000000      -0.00000000
C       21.61353717      12.00000000       0.61487804       0.00000000      -0.00134997       0.00000000      -0.00000000
C       22.32536564      12.00000000       1.84463411       0.00000000      -0.00353843       0.00000000       0.00000000
C       23.75293107      12.00000000       1.84463411       0.00000000      -0.00266055       0.00000000      -0.00000000
C       24.46390421      12.00000000       0.61487804       0.00000000       0.00255618       0.00000000      -0.00000000
C       25.89431531      12.00000000       0.61487804       0.00000000      -0.00724482       0.00000000       0.00000000
C       26.60211757      12.00000000       1.84463411       0.00000000      -0.00250889       0.00000000      -0.00000000
C       28.04503499      12.00000000       1.84463411       0.00000000      -0.00320798       0.00000000      -0.00000000
C       28.72659763      12.00000000       0.61487804       0.00000000      -0.00355612       0.00000000       0.00000000
H       11.97800859      12.00000000       0.61487804       0.00000000      -0.00422670       0.00000000       0.00000000
H       29.82199141      12.00000000       0.61487804       0.00000000       0.00422670       0.00000000       0.00000000
