14
Lattice="37.54 0.0 0.0 0.0 24.0 0.0 0.0 0.0 2.4595121467478056" Properties=species:S:1:pos:R:3:magmoms:R:1:forces:R:3 energy=-115.96228534410281 free_energy=-115.9963404883458 dipole="-3.1930847951853787e-13 -2.519020600989402e-13 -0.3783659457219309" magmom=0.0 pbc="T T T"
C       13.08238599      12.00000000       0.61487804       0.00000000      -0.01479113       0.00000000       0.00000001
C       13.76346580      12.00000000       1.84463411       0.00000000      -0.00867928       0.00000000      -0.00000001
C       15.20687091      12.00000000       1.84463411       0.00000000       0.00028406       0.00000000      -0.00000001
C       15.91369832      12.00000000       0.61487804       0.00000000       0.00682031       0.00000000      -0.00000000
C       17.34512259      12.00000000       0.61487804       0.00000000       0.01253879       0.00000000      -0.00000000
C       18.05499571      12.00000000       1.84463411       0.00000000       0.01338513       0.00000000       0.00000001
C       19.48500429      12.00000000       1.84463411       0.00000000      -0.01338513       0.00000000       0.00000001
C       20.19487741      12.00000000       0.61487804       0.00000000      -0.01253879       0.00000000      -0.00000000
C       21.62630168      12.00000000       0.61487804       0.00000000      -0.00682031       0.00000000      -0.00000000
C       22.33312909      12.00000000       1.84463411       0.00000000      -0.00028406       0.00000000      -0.00000001
C       23.77653420      12.00000000       1.84463411       0.00000000       0.00867928       0.00000000      -0.00000001
C       24.45761401      12.00000000       0.61487804       0.00000000       0.01479113       0.00000000       0.00000001
H       11.98661255      12.00000000       0.61487804       0.00000000       0.00881063       0.00000000       0.00000000
H       25.55338745      12.00000000       0.61487804       0.00000000      -0.00881063       0.00000000       0.00000000
