10
Lattice="29.28 0.0 0.0 0.0 20.0 0.0 0.0 0.0 2.4595121467478056" Properties=species:S:1:pos:R:3 pbc="F F T"
C       11.09000000      10.00000000       0.00000000
C       11.80000000      10.00000000       1.22975607
C       13.22000000      10.00000000       1.22975607
C       13.93000000      10.00000000       0.00000000
C       15.35000000      10.00000000       0.00000000
C       16.06000000      10.00000000       1.22975607
C       17.48000000      10.00000000       1.22975607
C       18.19000000      10.00000000       0.00000000
H       10.00000000      10.00000000       0.00000000
H       19.28000000      10.00000000       0.00000000
