6
Lattice="29.02 0.0 0.0 0.0 24.0 0.0 0.0 0.0 2.4595121467478056" Properties=species:S:1:pos:R:3:magmoms:R:1:forces:R:3 energy=-40.77912241481604 free_energy=-40.79162217715681 dipole="6.453232202291048e-14 -9.043579433770169e-14 -0.38939951045585397" magmom=0.0 pbc="T T T"
C       13.08520049      12.00000000       0.61487804       0.00000000       0.00534302       0.00000000       0.00000000
C       13.77690716      12.00000000       1.84463411       0.00000000      -0.01174182       0.00000000       0.00000000
C       15.24309284      12.00000000       1.84463411       0.00000000       0.01174182       0.00000000       0.00000000
C       15.93479951      12.00000000       0.61487804       0.00000000      -0.00534302       0.00000000       0.00000000
H       11.97707971      12.00000000       0.61487804       0.00000000       0.00106959       0.00000000       0.00000000
H       17.04292029      12.00000000       0.61487804       0.00000000      -0.00106959       0.00000000       0.00000000
