10
Lattice="33.28 0.0 0.0 0.0 24.0 0.0 0.0 0.0 2.4595121467478056" Properties=species:S:1:pos:R:3:magmoms:R:1:forces:R:3 energy=-75.16993505090828 free_energy=-75.19934472609464 dipole="2.1143845165445162e-13 -1.7141051016815977e-13 -0.38669978194967514" magmom=0.0 pbc="T T T"
C       13.05328778      12.00000000       0.61487804       0.00000000       0.00097057       0.00000000       0.00000000
C       13.74797834      12.00000000       1.84463411       0.00000000       0.01900385       0.00000000      -0.00000000
C       15.20161574      12.00000000       1.84463411       0.00000000       0.00191704       0.00000000       0.00000000
C       15.91747698      12.00000000       0.61487804       0.00000000       0.01885826       0.00000000      -0.00000000
C       17.36252302      12.00000000       0.61487804       0.00000000      -0.01885826       0.00000000      -0.00000000
C       18.07838426      12.00000000       1.84463411       0.00000000      -0.00191704       0.00000000       0.00000000
C       19.53202166      12.00000000       1.84463411       0.00000000      -0.01900385       0.00000000      -0.00000000
C       20.22671222      12.00000000       0.61487804       0.00000000      -0.00097057       0.00000000       0.00000000
H       11.94634344      12.00000000       0.61487804       0.00000000      -0.01384459       0.00000000      -0.00000000
H       21.33365656      12.00000000       0.61487804       0.00000000       0.01384459       0.00000000      -0.00000000
