6
Lattice="25.02 0.0 0.0 0.0 20.0 0.0 0.0 0.0 2.4595121467478056" Properties=species:S:1:pos:R:3:magmoms:R:1:forces:R:3 energy=-31.740151109727652 free_energy=-31.878460012630274 dipole="1.2214018454131046e-13 6.63000077889234e-14 -0.7124457100115292" magmom=0.0 pbc="T T T"
C       10.64876706      10.00000000       0.61490142       0.00000000       0.00503626       0.00000000       0.00012970
C       10.64921902      10.00000000       1.84465601       0.00000000      -0.00885974       0.00000000      -0.00012590
C       14.37078098      10.00000000       1.84465601       0.00000000       0.00885974       0.00000000      -0.00012590
C       14.37123294      10.00000000       0.61490142       0.00000000      -0.00503626       0.00000000       0.00012970
H        7.55805497      10.00000000       0.61478261       0.00000000       0.00034751       0.00000000       0.00001205
H       17.46194503      10.00000000       0.61478261       0.00000000      -0.00034751       0.00000000       0.00001205
