4
Lattice="26.89 0.0 0.0 0.0 24.0 0.0 0.0 0.0 2.4595121467478056" Properties=species:S:1:pos:R:3:magmoms:R:1:forces:R:3 energy=-24.948273432874696 free_energy=-24.949265625913 dipole="2.2309442649639878e-14 -4.907850488110093e-14 7.92574927346353e-16" magmom=0.0 pbc="T T T"
C       13.11916630      12.00000000       0.61487804       0.00000000       0.00887293       0.00000000      -0.00000000
C       13.77083370      12.00000000       1.84463411       0.00000000      -0.00887293       0.00000000       0.00000000
H       12.02043136      12.00000000       0.61487804       0.00000000      -0.00522022       0.00000000      -0.00000000
H       14.86956864      12.00000000       1.84463411       0.00000000       0.00522022       0.00000000       0.00000000
