18
Lattice="41.8 0.0 0.0 0.0 24.0 0.0 0.0 0.0 2.4595121467478056" Properties=species:S:1:pos:R:3:magmoms:R:1:forces:R:3 energy=-144.2330477469645 free_energy=-144.26923540482508 dipole="-1.183268244912068e-12 -3.367141385708712e-13 -0.3862023589852296" magmom=0.0 pbc="T T T"
C       12.99357871      12.00000000       0.61487804       0.00000000       0.01223317       0.00000000      -0.00000000
C       13.69043857      12.00000000       1.84463411       0.00000000      -0.01672404       0.00000000      -0.00000000
C       15.14366664      12.00000000       1.84463411       0.00000000       0.01078534       0.00000000       0.00000000
C       15.86222981      12.00000000       0.61487804       0.00000000      -0.00771331       0.00000000      -0.00000000
C       17.30285510      12.00000000       0.61487804       0.00000000      -0.00401341       0.00000000      -0.00000000
C       18.02301223      12.00000000       1.84463411       0.00000000       0.00565062       0.00000000       0.00000000
C       19.46057284      12.00000000       1.84463411       0.00000000       0.00155803       0.00000000       0.00000000
C       20.18116884      12.00000000       0.61487804       0.00000000      -0.00058402       0.00000000       0.00000000
C       21.61883116      12.00000000       0.61487804       0.00000000       0.00058402       0.00000000       0.00000000
C       22.33942716      12.00000000       1.84463411       0.00000000      -0.00155803       0.00000000       0.00000000
C       23.77698777      12.00000000       1.84463411       0.00000000      -0.00565062       0.00000000       0.00000000
C       24.49714490      12.00000000       0.61487804       0.00000000       0.00401341       0.00000000      -0.00000000
C       25.93777019      12.00000000       0.61487804       0.00000000       0.00771331       0.00000000      -0.00000000
C       26.65633336      12.00000000       1.84463411       0.00000000      -0.01078534       0.00000000       0.00000000
C       28.10956143      12.00000000       1.84463411       0.00000000       0.01672404       0.00000000      -0.00000000
C       28.80642129      12.00000000       0.61487804       0.00000000      -0.01223317       0.00000000      -0.00000000
H       11.88632468      12.00000000       0.61487804       0.00000000      -0.00746343       0.00000000       0.00000000
H       29.91367532      12.00000000       0.61487804       0.00000000       0.00746343       0.00000000       0.00000000
