36
Lattice="37.8 0.0 0.0 0.0 20.0 0.0 0.0 0.0 4.919024293495611" Properties=species:S:1:pos:R:3:initial_magmoms:R:1:magmoms:R:1:forces:R:3 energy=-288.1465606625683 free_energy=-288.14729541295833 dipole="-5.978627709744036e-08 2.832803656557506e-13 -17.362769667400098" magmom=-5.654730850805282e-10 pbc="F F T"
C       11.11208206      10.00000000      -0.00000000       0.72983477       0.20245310       0.00101428       0.00000000      -0.00000022
C       11.80469855      10.00000000       1.22975538       0.65384439      -0.02716186       0.00588929       0.00000000       0.00001832
C       11.11208362      10.00000000       2.45951216       0.24154725       0.20245396       0.00098403       0.00000000      -0.00000197
C       11.80469854      10.00000000       3.68926889       0.97259266      -0.02716186       0.00588958       0.00000000      -0.00001491
C       13.21547869      10.00000000       1.22975553       0.99226513       0.00370711       0.00656050       0.00000000       0.00001045
C       13.93697770      10.00000000       2.45951217      -0.09369006      -0.00521512       0.00119762       0.00000000       0.00000189
C       13.21547870      10.00000000       3.68926886      -0.20312196       0.00370711       0.00655993       0.00000000      -0.00001502
C       13.93697998      10.00000000       0.00000002      -0.24647827      -0.00521514       0.00114346       0.00000000       0.00000217
C       15.34432920      10.00000000       0.00000005      -0.76671976       0.00388503      -0.00966015       0.00000000      -0.00000200
C       16.06657474      10.00000000       1.22975628      -0.17096983      -0.00169087      -0.00154724       0.00000000       0.00001015
C       15.34432741      10.00000000       2.45951223      -0.99529295       0.00388503      -0.00963335       0.00000000      -0.00000512
C       16.06657471      10.00000000       3.68926804       0.85773800      -0.00169087      -0.00154873       0.00000000      -0.00000233
C       17.47315291      10.00000000       1.22975626       0.79297613       0.00062230      -0.00235949       0.00000000      -0.00001216
C       18.19669536      10.00000000       2.45951215      -0.96851049      -0.00070468      -0.00223421       0.00000000       0.00000334
C       17.47315281      10.00000000       3.68926818      -0.65802972       0.00062230      -0.00235461       0.00000000      -0.00000098
C       18.19669559      10.00000000      -0.00000009       0.82025007      -0.00070468      -0.00224078       0.00000000       0.00000958
C       19.60330076      10.00000000       0.00000004      -0.89456726       0.00070468       0.00223262       0.00000000      -0.00000635
C       20.32684381      10.00000000       1.22975606       0.13238905      -0.00062231       0.00235136       0.00000000       0.00000271
C       19.60330039      10.00000000       2.45951216       0.78889317       0.00070468       0.00224664       0.00000000      -0.00000472
C       20.32684368      10.00000000       3.68926810      -0.98959827      -0.00062230       0.00235239       0.00000000       0.00000834
C       21.73342207      10.00000000       1.22975601       0.35444878       0.00169087       0.00155454       0.00000000      -0.00000459
C       22.45566829      10.00000000       2.45951221      -0.94756594      -0.00388502       0.00965577       0.00000000      -0.00000309
C       21.73342186      10.00000000       3.68926830       0.34785867       0.00169087       0.00156094       0.00000000      -0.00000156
C       22.45566908      10.00000000      -0.00000012       0.53540376      -0.00388502       0.00964431       0.00000000       0.00000778
C       23.86301904      10.00000000       0.00000000      -0.04960826       0.00521512      -0.00117887       0.00000000      -0.00000204
C       24.58451921      10.00000000       1.22975637       0.32059048      -0.00370711      -0.00656345       0.00000000      -0.00001071
C       23.86301795      10.00000000       2.45951214       0.45034795       0.00521513      -0.00114949       0.00000000       0.00000027
C       24.58451914      10.00000000       3.68926790       0.79436503      -0.00370711      -0.00655976       0.00000000       0.00001251
C       25.99529967      10.00000000       1.22975632       0.67714157       0.02716187      -0.00588367       0.00000000      -0.00000521
C       26.68791605      10.00000000       2.45951217      -0.94798935      -0.20245331      -0.00101827       0.00000000      -0.00000060
C       25.99529962      10.00000000       3.68926801      -0.76081404       0.02716188      -0.00588318       0.00000000       0.00000214
C       26.68791581      10.00000000      -0.00000003      -0.65973408      -0.20245383      -0.00100939       0.00000000       0.00000288
H       10.00181530      10.00000000      -0.00000001       0.30032155      -0.00525808      -0.01001392       0.00000000       0.00000014
H       10.00181614      10.00000000       2.45951208      -0.90546945      -0.00525813      -0.00999506       0.00000000       0.00000043
H       27.79818306      10.00000000       2.45951214      -0.95422552       0.00525809       0.01000745       0.00000000       0.00000024
H       27.79818337      10.00000000       0.00000007      -0.19003412       0.00525813       0.00998965       0.00000000      -0.00000060
