6
Lattice="29.02 0.0 0.0 0.0 24.0 0.0 0.0 0.0 2.4595121467478056" Properties=species:S:1:pos:R:3:magmoms:R:1:forces:R:3 energy=-43.00191669878829 free_energy=-43.01040168188802 dipole="1.3593892194544238e-13 -9.045126630807244e-14 -0.3814637106770205" magmom=0.0 pbc="T T T"
C       13.10283744      12.00000000       0.61487804       0.00000000       0.00196165       0.00000000       0.00000000
C       13.77939435      12.00000000       1.84463411       0.00000000      -0.00396315       0.00000000      -0.00000000
C       15.24060565      12.00000000       1.84463411       0.00000000       0.00396315       0.00000000      -0.00000000
C       15.91716256      12.00000000       0.61487804       0.00000000      -0.00196165       0.00000000       0.00000000
H       12.00665117      12.00000000       0.61487804       0.00000000      -0.00016112       0.00000000       0.00000000
H       17.01334883      12.00000000       0.61487804       0.00000000       0.00016112       0.00000000       0.00000000
